data/solutions/recovery/degenerate/moderate/flexible/degenerate_moderate_instance20/65.sol
Elapsed time: 3.64
Upper bound: 154554155.0
Planning weighted value: 2260707686.0
C[0]=154554155.0
C[1]=154457853.0
C[2]=154169600.0
C[3]=153768258.0
y[0]=3
y[1]=0
y[2]=3
y[3]=1
y[4]=0
y[5]=0
y[6]=1
y[7]=1
y[8]=1
y[9]=0
y[10]=0
y[11]=2
y[12]=2
y[13]=1
y[14]=3
y[15]=3
y[16]=1
y[17]=0
y[18]=0
y[19]=0
y[20]=1
y[21]=3
y[22]=2
y[23]=3
y[24]=1
y[25]=1
y[26]=1
y[27]=1
y[28]=1
y[29]=0
y[30]=2
y[31]=0
y[32]=2
y[33]=3
y[34]=3
y[35]=2
